50	
2996	
6396	
615	415
904	704
369	169
677	477
635	435
990	690
211	11
613	413
1044	744
388	188
1192	992
964	764
1036	836
275	75
708	408
581	381
471	271
547	347
604	404
1171	971
627	427
1104	904
645	445
961	761
754	554
264	64
769	569
1073	873
531	331
570	370
958	758
1041	841
1181	981
576	376
629	429
910	710
1086	786
348	48
312	112
405	205
837	637
1111	911
675	475
876	676
628	428
244	44
1242	942
310	110
718	518
443	243